2 1
3 1
3 2
4 1
4 2
4 3
5 1
5 2
5 3
5 4
6 1
6 2
6 3
6 4
6 5
7 1
7 2
7 3
7 4
7 5
7 6
8 1
8 2
8 3
8 4
8 5
8 6
8 7
9 1
9 2
9 3
9 4
9 5
9 6
9 7
9 8
10 1
10 2
10 3
10 4
10 5
10 6
10 7
10 8
10 9
11 1
11 2
11 3
11 4
11 5
11 6
11 7
11 8
11 9
11 10
12 1
12 2
12 3
12 4
12 5
12 6
12 7
12 8
12 9
12 10
12 11
13 1
13 2
14 1
14 2
14 3
14 13
15 2
15 3
15 4
15 13
15 14
16 3
16 4
16 5
16 13
16 14
16 15
17 4
17 5
17 6
17 13
17 14
17 15
17 16
18 5
18 6
18 7
18 13
18 14
18 15
18 16
18 17
19 6
19 7
19 8
19 13
19 14
19 15
19 16
19 17
19 18
20 7
20 8
20 9
20 13
20 14
20 15
20 16
20 17
20 18
20 19
21 8
21 9
21 10
21 13
21 14
21 15
21 16
21 17
21 18
21 19
21 20
22 9
22 10
22 11
22 13
22 14
22 15
22 16
22 17
22 18
22 19
22 20
22 21
23 10
23 11
23 12
23 13
23 14
23 15
23 16
23 17
23 18
23 19
23 20
23 21
23 22
24 11
24 12
24 13
24 14
24 15
24 16
24 17
24 18
24 19
24 20
24 21
24 22
24 23
25 1
25 3
25 13
25 14
26 2
26 4
26 13
26 14
26 15
26 25
27 1
27 3
27 5
27 14
27 15
27 16
27 25
27 26
28 2
28 4
28 6
28 15
28 16
28 17
28 25
28 26
28 27
29 3
29 5
29 7
29 16
29 17
29 18
29 25
29 26
29 27
29 28
30 4
30 6
30 8
30 17
30 18
30 19
30 25
30 26
30 27
30 28
30 29
31 5
31 7
31 9
31 18
31 19
31 20
31 25
31 26
31 27
31 28
31 29
31 30
32 6
32 8
32 10
32 19
32 20
32 21
32 25
32 26
32 27
32 28
32 29
32 30
32 31
33 7
33 9
33 11
33 20
33 21
33 22
33 25
33 26
33 27
33 28
33 29
33 30
33 31
33 32
34 8
34 10
34 12
34 21
34 22
34 23
34 25
34 26
34 27
34 28
34 29
34 30
34 31
34 32
34 33
35 9
35 11
35 22
35 23
35 24
35 25
35 26
35 27
35 28
35 29
35 30
35 31
35 32
35 33
35 34
36 10
36 12
36 23
36 24
36 25
36 26
36 27
36 28
36 29
36 30
36 31
36 32
36 33
36 34
36 35
37 1
37 4
37 13
37 15
37 25
37 26
38 2
38 5
38 14
38 16
38 25
38 26
38 27
38 37
39 3
39 6
39 13
39 15
39 17
39 26
39 27
39 28
39 37
39 38
40 1
40 4
40 7
40 14
40 16
40 18
40 27
40 28
40 29
40 37
40 38
40 39
41 2
41 5
41 8
41 15
41 17
41 19
41 28
41 29
41 30
41 37
41 38
41 39
41 40
42 3
42 6
42 9
42 16
42 18
42 20
42 29
42 30
42 31
42 37
42 38
42 39
42 40
42 41
43 4
43 7
43 10
43 17
43 19
43 21
43 30
43 31
43 32
43 37
43 38
43 39
43 40
43 41
43 42
44 5
44 8
44 11
44 18
44 20
44 22
44 31
44 32
44 33
44 37
44 38
44 39
44 40
44 41
44 42
44 43
45 6
45 9
45 12
45 19
45 21
45 23
45 32
45 33
45 34
45 37
45 38
45 39
45 40
45 41
45 42
45 43
45 44
46 7
46 10
46 20
46 22
46 24
46 33
46 34
46 35
46 37
46 38
46 39
46 40
46 41
46 42
46 43
46 44
46 45
47 8
47 11
47 21
47 23
47 34
47 35
47 36
47 37
47 38
47 39
47 40
47 41
47 42
47 43
47 44
47 45
47 46
48 9
48 12
48 22
48 24
48 35
48 36
48 37
48 38
48 39
48 40
48 41
48 42
48 43
48 44
48 45
48 46
48 47
49 1
49 5
49 13
49 16
49 25
49 27
49 37
49 38
50 2
50 6
50 14
50 17
50 26
50 28
50 37
50 38
50 39
50 49
51 3
51 7
51 15
51 18
51 25
51 27
51 29
51 38
51 39
51 40
51 49
51 50
52 4
52 8
52 13
52 16
52 19
52 26
52 28
52 30
52 39
52 40
52 41
52 49
52 50
52 51
53 1
53 5
53 9
53 14
53 17
53 20
53 27
53 29
53 31
53 40
53 41
53 42
53 49
53 50
53 51
53 52
54 2
54 6
54 10
54 15
54 18
54 21
54 28
54 30
54 32
54 41
54 42
54 43
54 49
54 50
54 51
54 52
54 53
55 3
55 7
55 11
55 16
55 19
55 22
55 29
55 31
55 33
55 42
55 43
55 44
55 49
55 50
55 51
55 52
55 53
55 54
56 4
56 8
56 12
56 17
56 20
56 23
56 30
56 32
56 34
56 43
56 44
56 45
56 49
56 50
56 51
56 52
56 53
56 54
56 55
57 5
57 9
57 18
57 21
57 24
57 31
57 33
57 35
57 44
57 45
57 46
57 49
57 50
57 51
57 52
57 53
57 54
57 55
57 56
58 6
58 10
58 19
58 22
58 32
58 34
58 36
58 45
58 46
58 47
58 49
58 50
58 51
58 52
58 53
58 54
58 55
58 56
58 57
59 7
59 11
59 20
59 23
59 33
59 35
59 46
59 47
59 48
59 49
59 50
59 51
59 52
59 53
59 54
59 55
59 56
59 57
59 58
60 8
60 12
60 21
60 24
60 34
60 36
60 47
60 48
60 49
60 50
60 51
60 52
60 53
60 54
60 55
60 56
60 57
60 58
60 59
61 1
61 6
61 13
61 17
61 25
61 28
61 37
61 39
61 49
61 50
62 2
62 7
62 14
62 18
62 26
62 29
62 38
62 40
62 49
62 50
62 51
62 61
63 3
63 8
63 15
63 19
63 27
63 30
63 37
63 39
63 41
63 50
63 51
63 52
63 61
63 62
64 4
64 9
64 16
64 20
64 25
64 28
64 31
64 38
64 40
64 42
64 51
64 52
64 53
64 61
64 62
64 63
65 5
65 10
65 13
65 17
65 21
65 26
65 29
65 32
65 39
65 41
65 43
65 52
65 53
65 54
65 61
65 62
65 63
65 64
66 1
66 6
66 11
66 14
66 18
66 22
66 27
66 30
66 33
66 40
66 42
66 44
66 53
66 54
66 55
66 61
66 62
66 63
66 64
66 65
67 2
67 7
67 12
67 15
67 19
67 23
67 28
67 31
67 34
67 41
67 43
67 45
67 54
67 55
67 56
67 61
67 62
67 63
67 64
67 65
67 66
68 3
68 8
68 16
68 20
68 24
68 29
68 32
68 35
68 42
68 44
68 46
68 55
68 56
68 57
68 61
68 62
68 63
68 64
68 65
68 66
68 67
69 4
69 9
69 17
69 21
69 30
69 33
69 36
69 43
69 45
69 47
69 56
69 57
69 58
69 61
69 62
69 63
69 64
69 65
69 66
69 67
69 68
70 5
70 10
70 18
70 22
70 31
70 34
70 44
70 46
70 48
70 57
70 58
70 59
70 61
70 62
70 63
70 64
70 65
70 66
70 67
70 68
70 69
71 6
71 11
71 19
71 23
71 32
71 35
71 45
71 47
71 58
71 59
71 60
71 61
71 62
71 63
71 64
71 65
71 66
71 67
71 68
71 69
71 70
72 7
72 12
72 20
72 24
72 33
72 36
72 46
72 48
72 59
72 60
72 61
72 62
72 63
72 64
72 65
72 66
72 67
72 68
72 69
72 70
72 71
73 1
73 7
73 13
73 18
73 25
73 29
73 37
73 40
73 49
73 51
73 61
73 62
74 2
74 8
74 14
74 19
74 26
74 30
74 38
74 41
74 50
74 52
74 61
74 62
74 63
74 73
75 3
75 9
75 15
75 20
75 27
75 31
75 39
75 42
75 49
75 51
75 53
75 62
75 63
75 64
75 73
75 74
76 4
76 10
76 16
76 21
76 28
76 32
76 37
76 40
76 43
76 50
76 52
76 54
76 63
76 64
76 65
76 73
76 74
76 75
77 5
77 11
77 17
77 22
77 25
77 29
77 33
77 38
77 41
77 44
77 51
77 53
77 55
77 64
77 65
77 66
77 73
77 74
77 75
77 76
78 6
78 12
78 13
78 18
78 23
78 26
78 30
78 34
78 39
78 42
78 45
78 52
78 54
78 56
78 65
78 66
78 67
78 73
78 74
78 75
78 76
78 77
79 1
79 7
79 14
79 19
79 24
79 27
79 31
79 35
79 40
79 43
79 46
79 53
79 55
79 57
79 66
79 67
79 68
79 73
79 74
79 75
79 76
79 77
79 78
80 2
80 8
80 15
80 20
80 28
80 32
80 36
80 41
80 44
80 47
80 54
80 56
80 58
80 67
80 68
80 69
80 73
80 74
80 75
80 76
80 77
80 78
80 79
81 3
81 9
81 16
81 21
81 29
81 33
81 42
81 45
81 48
81 55
81 57
81 59
81 68
81 69
81 70
81 73
81 74
81 75
81 76
81 77
81 78
81 79
81 80
82 4
82 10
82 17
82 22
82 30
82 34
82 43
82 46
82 56
82 58
82 60
82 69
82 70
82 71
82 73
82 74
82 75
82 76
82 77
82 78
82 79
82 80
82 81
83 5
83 11
83 18
83 23
83 31
83 35
83 44
83 47
83 57
83 59
83 70
83 71
83 72
83 73
83 74
83 75
83 76
83 77
83 78
83 79
83 80
83 81
83 82
84 6
84 12
84 19
84 24
84 32
84 36
84 45
84 48
84 58
84 60
84 71
84 72
84 73
84 74
84 75
84 76
84 77
84 78
84 79
84 80
84 81
84 82
84 83
85 1
85 8
85 13
85 19
85 25
85 30
85 37
85 41
85 49
85 52
85 61
85 63
85 73
85 74
86 2
86 9
86 14
86 20
86 26
86 31
86 38
86 42
86 50
86 53
86 62
86 64
86 73
86 74
86 75
86 85
87 3
87 10
87 15
87 21
87 27
87 32
87 39
87 43
87 51
87 54
87 61
87 63
87 65
87 74
87 75
87 76
87 85
87 86
88 4
88 11
88 16
88 22
88 28
88 33
88 40
88 44
88 49
88 52
88 55
88 62
88 64
88 66
88 75
88 76
88 77
88 85
88 86
88 87
89 5
89 12
89 17
89 23
89 29
89 34
89 37
89 41
89 45
89 50
89 53
89 56
89 63
89 65
89 67
89 76
89 77
89 78
89 85
89 86
89 87
89 88
90 6
90 18
90 24
90 25
90 30
90 35
90 38
90 42
90 46
90 51
90 54
90 57
90 64
90 66
90 68
90 77
90 78
90 79
90 85
90 86
90 87
90 88
90 89
91 7
91 13
91 19
91 26
91 31
91 36
91 39
91 43
91 47
91 52
91 55
91 58
91 65
91 67
91 69
91 78
91 79
91 80
91 85
91 86
91 87
91 88
91 89
91 90
92 1
92 8
92 14
92 20
92 27
92 32
92 40
92 44
92 48
92 53
92 56
92 59
92 66
92 68
92 70
92 79
92 80
92 81
92 85
92 86
92 87
92 88
92 89
92 90
92 91
93 2
93 9
93 15
93 21
93 28
93 33
93 41
93 45
93 54
93 57
93 60
93 67
93 69
93 71
93 80
93 81
93 82
93 85
93 86
93 87
93 88
93 89
93 90
93 91
93 92
94 3
94 10
94 16
94 22
94 29
94 34
94 42
94 46
94 55
94 58
94 68
94 70
94 72
94 81
94 82
94 83
94 85
94 86
94 87
94 88
94 89
94 90
94 91
94 92
94 93
95 4
95 11
95 17
95 23
95 30
95 35
95 43
95 47
95 56
95 59
95 69
95 71
95 82
95 83
95 84
95 85
95 86
95 87
95 88
95 89
95 90
95 91
95 92
95 93
95 94
96 5
96 12
96 18
96 24
96 31
96 36
96 44
96 48
96 57
96 60
96 70
96 72
96 83
96 84
96 85
96 86
96 87
96 88
96 89
96 90
96 91
96 92
96 93
96 94
96 95
97 1
97 9
97 13
97 20
97 25
97 31
97 37
97 42
97 49
97 53
97 61
97 64
97 73
97 75
97 85
97 86
98 2
98 10
98 14
98 21
98 26
98 32
98 38
98 43
98 50
98 54
98 62
98 65
98 74
98 76
98 85
98 86
98 87
98 97
99 3
99 11
99 15
99 22
99 27
99 33
99 39
99 44
99 51
99 55
99 63
99 66
99 73
99 75
99 77
99 86
99 87
99 88
99 97
99 98
100 4
100 12
100 16
100 23
100 28
100 34
100 40
100 45
100 52
100 56
100 61
100 64
100 67
100 74
100 76
100 78
100 87
100 88
100 89
100 97
100 98
100 99
101 5
101 17
101 24
101 29
101 35
101 41
101 46
101 49
101 53
101 57
101 62
101 65
101 68
101 75
101 77
101 79
101 88
101 89
101 90
101 97
101 98
101 99
101 100
102 6
102 18
102 30
102 36
102 37
102 42
102 47
102 50
102 54
102 58
102 63
102 66
102 69
102 76
102 78
102 80
102 89
102 90
102 91
102 97
102 98
102 99
102 100
102 101
103 7
103 19
103 25
103 31
103 38
103 43
103 48
103 51
103 55
103 59
103 64
103 67
103 70
103 77
103 79
103 81
103 90
103 91
103 92
103 97
103 98
103 99
103 100
103 101
103 102
104 8
104 13
104 20
104 26
104 32
104 39
104 44
104 52
104 56
104 60
104 65
104 68
104 71
104 78
104 80
104 82
104 91
104 92
104 93
104 97
104 98
104 99
104 100
104 101
104 102
104 103
105 1
105 9
105 14
105 21
105 27
105 33
105 40
105 45
105 53
105 57
105 66
105 69
105 72
105 79
105 81
105 83
105 92
105 93
105 94
105 97
105 98
105 99
105 100
105 101
105 102
105 103
105 104
106 2
106 10
106 15
106 22
106 28
106 34
106 41
106 46
106 54
106 58
106 67
106 70
106 80
106 82
106 84
106 93
106 94
106 95
106 97
106 98
106 99
106 100
106 101
106 102
106 103
106 104
106 105
107 3
107 11
107 16
107 23
107 29
107 35
107 42
107 47
107 55
107 59
107 68
107 71
107 81
107 83
107 94
107 95
107 96
107 97
107 98
107 99
107 100
107 101
107 102
107 103
107 104
107 105
107 106
108 4
108 12
108 17
108 24
108 30
108 36
108 43
108 48
108 56
108 60
108 69
108 72
108 82
108 84
108 95
108 96
108 97
108 98
108 99
108 100
108 101
108 102
108 103
108 104
108 105
108 106
108 107
109 1
109 10
109 13
109 21
109 25
109 32
109 37
109 43
109 49
109 54
109 61
109 65
109 73
109 76
109 85
109 87
109 97
109 98
110 2
110 11
110 14
110 22
110 26
110 33
110 38
110 44
110 50
110 55
110 62
110 66
110 74
110 77
110 86
110 88
110 97
110 98
110 99
110 109
111 3
111 12
111 15
111 23
111 27
111 34
111 39
111 45
111 51
111 56
111 63
111 67
111 75
111 78
111 85
111 87
111 89
111 98
111 99
111 100
111 109
111 110
112 4
112 16
112 24
112 28
112 35
112 40
112 46
112 52
112 57
112 64
112 68
112 73
112 76
112 79
112 86
112 88
112 90
112 99
112 100
112 101
112 109
112 110
112 111
113 5
113 17
113 29
113 36
113 41
113 47
113 53
113 58
113 61
113 65
113 69
113 74
113 77
113 80
113 87
113 89
113 91
113 100
113 101
113 102
113 109
113 110
113 111
113 112
114 6
114 18
114 30
114 42
114 48
114 49
114 54
114 59
114 62
114 66
114 70
114 75
114 78
114 81
114 88
114 90
114 92
114 101
114 102
114 103
114 109
114 110
114 111
114 112
114 113
115 7
115 19
115 31
115 37
115 43
115 50
115 55
115 60
115 63
115 67
115 71
115 76
115 79
115 82
115 89
115 91
115 93
115 102
115 103
115 104
115 109
115 110
115 111
115 112
115 113
115 114
116 8
116 20
116 25
116 32
116 38
116 44
116 51
116 56
116 64
116 68
116 72
116 77
116 80
116 83
116 90
116 92
116 94
116 103
116 104
116 105
116 109
116 110
116 111
116 112
116 113
116 114
116 115
117 9
117 13
117 21
117 26
117 33
117 39
117 45
117 52
117 57
117 65
117 69
117 78
117 81
117 84
117 91
117 93
117 95
117 104
117 105
117 106
117 109
117 110
117 111
117 112
117 113
117 114
117 115
117 116
118 1
118 10
118 14
118 22
118 27
118 34
118 40
118 46
118 53
118 58
118 66
118 70
118 79
118 82
118 92
118 94
118 96
118 105
118 106
118 107
118 109
118 110
118 111
118 112
118 113
118 114
118 115
118 116
118 117
119 2
119 11
119 15
119 23
119 28
119 35
119 41
119 47
119 54
119 59
119 67
119 71
119 80
119 83
119 93
119 95
119 106
119 107
119 108
119 109
119 110
119 111
119 112
119 113
119 114
119 115
119 116
119 117
119 118
120 3
120 12
120 16
120 24
120 29
120 36
120 42
120 48
120 55
120 60
120 68
120 72
120 81
120 84
120 94
120 96
120 107
120 108
120 109
120 110
120 111
120 112
120 113
120 114
120 115
120 116
120 117
120 118
120 119
121 1
121 11
121 13
121 22
121 25
121 33
121 37
121 44
121 49
121 55
121 61
121 66
121 73
121 77
121 85
121 88
121 97
121 99
121 109
121 110
122 2
122 12
122 14
122 23
122 26
122 34
122 38
122 45
122 50
122 56
122 62
122 67
122 74
122 78
122 86
122 89
122 98
122 100
122 109
122 110
122 111
122 121
123 3
123 15
123 24
123 27
123 35
123 39
123 46
123 51
123 57
123 63
123 68
123 75
123 79
123 87
123 90
123 97
123 99
123 101
123 110
123 111
123 112
123 121
123 122
124 4
124 16
124 28
124 36
124 40
124 47
124 52
124 58
124 64
124 69
124 76
124 80
124 85
124 88
124 91
124 98
124 100
124 102
124 111
124 112
124 113
124 121
124 122
124 123
125 5
125 17
125 29
125 41
125 48
125 53
125 59
125 65
125 70
125 73
125 77
125 81
125 86
125 89
125 92
125 99
125 101
125 103
125 112
125 113
125 114
125 121
125 122
125 123
125 124
126 6
126 18
126 30
126 42
126 54
126 60
126 61
126 66
126 71
126 74
126 78
126 82
126 87
126 90
126 93
126 100
126 102
126 104
126 113
126 114
126 115
126 121
126 122
126 123
126 124
126 125
127 7
127 19
127 31
127 43
127 49
127 55
127 62
127 67
127 72
127 75
127 79
127 83
127 88
127 91
127 94
127 101
127 103
127 105
127 114
127 115
127 116
127 121
127 122
127 123
127 124
127 125
127 126
128 8
128 20
128 32
128 37
128 44
128 50
128 56
128 63
128 68
128 76
128 80
128 84
128 89
128 92
128 95
128 102
128 104
128 106
128 115
128 116
128 117
128 121
128 122
128 123
128 124
128 125
128 126
128 127
129 9
129 21
129 25
129 33
129 38
129 45
129 51
129 57
129 64
129 69
129 77
129 81
129 90
129 93
129 96
129 103
129 105
129 107
129 116
129 117
129 118
129 121
129 122
129 123
129 124
129 125
129 126
129 127
129 128
130 10
130 13
130 22
130 26
130 34
130 39
130 46
130 52
130 58
130 65
130 70
130 78
130 82
130 91
130 94
130 104
130 106
130 108
130 117
130 118
130 119
130 121
130 122
130 123
130 124
130 125
130 126
130 127
130 128
130 129
131 1
131 11
131 14
131 23
131 27
131 35
131 40
131 47
131 53
131 59
131 66
131 71
131 79
131 83
131 92
131 95
131 105
131 107
131 118
131 119
131 120
131 121
131 122
131 123
131 124
131 125
131 126
131 127
131 128
131 129
131 130
132 2
132 12
132 15
132 24
132 28
132 36
132 41
132 48
132 54
132 60
132 67
132 72
132 80
132 84
132 93
132 96
132 106
132 108
132 119
132 120
132 121
132 122
132 123
132 124
132 125
132 126
132 127
132 128
132 129
132 130
132 131
133 1
133 12
133 13
133 23
133 25
133 34
133 37
133 45
133 49
133 56
133 61
133 67
133 73
133 78
133 85
133 89
133 97
133 100
133 109
133 111
133 121
133 122
134 2
134 14
134 24
134 26
134 35
134 38
134 46
134 50
134 57
134 62
134 68
134 74
134 79
134 86
134 90
134 98
134 101
134 110
134 112
134 121
134 122
134 123
134 133
135 3
135 15
135 27
135 36
135 39
135 47
135 51
135 58
135 63
135 69
135 75
135 80
135 87
135 91
135 99
135 102
135 109
135 111
135 113
135 122
135 123
135 124
135 133
135 134
136 4
136 16
136 28
136 40
136 48
136 52
136 59
136 64
136 70
136 76
136 81
136 88
136 92
136 97
136 100
136 103
136 110
136 112
136 114
136 123
136 124
136 125
136 133
136 134
136 135
137 5
137 17
137 29
137 41
137 53
137 60
137 65
137 71
137 77
137 82
137 85
137 89
137 93
137 98
137 101
137 104
137 111
137 113
137 115
137 124
137 125
137 126
137 133
137 134
137 135
137 136
138 6
138 18
138 30
138 42
138 54
138 66
138 72
138 73
138 78
138 83
138 86
138 90
138 94
138 99
138 102
138 105
138 112
138 114
138 116
138 125
138 126
138 127
138 133
138 134
138 135
138 136
138 137
139 7
139 19
139 31
139 43
139 55
139 61
139 67
139 74
139 79
139 84
139 87
139 91
139 95
139 100
139 103
139 106
139 113
139 115
139 117
139 126
139 127
139 128
139 133
139 134
139 135
139 136
139 137
139 138
140 8
140 20
140 32
140 44
140 49
140 56
140 62
140 68
140 75
140 80
140 88
140 92
140 96
140 101
140 104
140 107
140 114
140 116
140 118
140 127
140 128
140 129
140 133
140 134
140 135
140 136
140 137
140 138
140 139
141 9
141 21
141 33
141 37
141 45
141 50
141 57
141 63
141 69
141 76
141 81
141 89
141 93
141 102
141 105
141 108
141 115
141 117
141 119
141 128
141 129
141 130
141 133
141 134
141 135
141 136
141 137
141 138
141 139
141 140
142 10
142 22
142 25
142 34
142 38
142 46
142 51
142 58
142 64
142 70
142 77
142 82
142 90
142 94
142 103
142 106
142 116
142 118
142 120
142 129
142 130
142 131
142 133
142 134
142 135
142 136
142 137
142 138
142 139
142 140
142 141
143 11
143 13
143 23
143 26
143 35
143 39
143 47
143 52
143 59
143 65
143 71
143 78
143 83
143 91
143 95
143 104
143 107
143 117
143 119
143 130
143 131
143 132
143 133
143 134
143 135
143 136
143 137
143 138
143 139
143 140
143 141
143 142
144 1
144 12
144 14
144 24
144 27
144 36
144 40
144 48
144 53
144 60
144 66
144 72
144 79
144 84
144 92
144 96
144 105
144 108
144 118
144 120
144 131
144 132
144 133
144 134
144 135
144 136
144 137
144 138
144 139
144 140
144 141
144 142
144 143
?